35
1 0 57
2 0 85
2 1 21
3 0 82
3 1 76
3 2 94
4 0 85
4 1 68
4 2 69
4 3 87
5 0 69
5 1 82
5 2 61
5 3 86
5 4 46
6 0 22
6 1 52
6 2 54
6 3 93
6 4 37
6 5 81
7 0 30
7 1 27
7 2 9
7 3 37
7 4 5
7 5 87
7 6 2
8 0 81
8 1 37
8 2 64
8 3 94
8 4 55
8 5 6
8 6 36
8 7 86
9 0 74
9 1 44
9 2 52
9 3 73
9 4 34
9 5 99
9 6 72
9 7 93
9 8 83
10 0 18
10 1 71
10 2 19
10 3 35
10 4 52
10 5 36
10 6 38
10 7 33
10 8 18
10 9 44
11 0 36
11 1 72
11 2 80
11 3 83
11 4 97
11 5 61
11 6 32
11 7 56
11 8 65
11 9 70
11 10 79
12 0 86
12 1 39
12 2 88
12 3 72
12 4 4
12 5 100
12 6 8
12 7 29
12 8 95
12 9 83
12 10 94
12 11 51
13 0 23
13 1 53
13 2 2
13 3 17
13 4 83
13 5 38
13 6 66
13 7 10
13 8 26
13 9 30
13 10 68
13 11 23
13 12 58
14 0 71
14 1 46
14 2 30
14 3 31
14 4 59
14 5 24
14 6 30
14 7 54
14 8 62
14 9 51
14 10 95
14 11 100
14 12 21
14 13 87
15 0 92
15 1 88
15 2 75
15 3 93
15 4 40
15 5 62
15 6 41
15 7 87
15 8 32
15 9 5
15 10 27
15 11 74
15 12 45
15 13 49
15 14 80
16 0 87
16 1 95
16 2 75
16 3 71
16 4 76
16 5 24
16 6 15
16 7 85
16 8 30
16 9 29
16 10 93
16 11 69
16 12 30
16 13 54
16 14 76
16 15 43
17 0 69
17 1 25
17 2 19
17 3 92
17 4 78
17 5 91
17 6 20
17 7 87
17 8 44
17 9 84
17 10 27
17 11 99
17 12 15
17 13 41
17 14 50
17 15 12
17 16 34
18 0 39
18 1 93
18 2 48
18 3 26
18 4 15
18 5 87
18 6 46
18 7 52
18 8 8
18 9 91
18 10 85
18 11 94
18 12 24
18 13 11
18 14 19
18 15 27
18 16 6
18 17 30
19 0 68
19 1 17
19 2 78
19 3 66
19 4 97
19 5 17
19 6 78
19 7 94
19 8 61
19 9 85
19 10 14
19 11 96
19 12 12
19 13 14
19 14 95
19 15 33
19 16 72
19 17 70
19 18 26
20 0 47
20 1 54
20 2 78
20 3 75
20 4 43
20 5 57
20 6 77
20 7 37
20 8 99
20 9 67
20 10 69
20 11 68
20 12 10
20 13 65
20 14 6
20 15 56
20 16 71
20 17 94
20 18 4
20 19 54
21 0 39
21 1 55
21 2 73
21 3 87
21 4 47
21 5 32
21 6 4
21 7 17
21 8 40
21 9 52
21 10 47
21 11 24
21 12 78
21 13 48
21 14 80
21 15 31
21 16 8
21 17 73
21 18 46
21 19 92
21 20 8
22 0 84
22 1 6
22 2 13
22 3 56
22 4 89
22 5 44
22 6 80
22 7 72
22 8 34
22 9 18
22 10 1
22 11 43
22 12 69
22 13 37
22 14 14
22 15 20
22 16 17
22 17 15
22 18 88
22 19 56
22 20 47
22 21 28
23 0 28
23 1 15
23 2 5
23 3 83
23 4 82
23 5 82
23 6 75
23 7 64
23 8 72
23 9 48
23 10 60
23 11 15
23 12 33
23 13 41
23 14 7
23 15 91
23 16 15
23 17 42
23 18 23
23 19 60
23 20 75
23 21 5
23 22 54
24 0 65
24 1 89
24 2 61
24 3 10
24 4 59
24 5 34
24 6 77
24 7 81
24 8 81
24 9 32
24 10 8
24 11 62
24 12 28
24 13 60
24 14 59
24 15 78
24 16 58
24 17 62
24 18 39
24 19 99
24 20 11
24 21 19
24 22 79
24 23 57
25 0 36
25 1 57
25 2 52
25 3 31
25 4 79
25 5 10
25 6 6
25 7 40
25 8 37
25 9 64
25 10 3
25 11 76
25 12 17
25 13 42
25 14 25
25 15 65
25 16 33
25 17 12
25 18 91
25 19 26
25 20 40
25 21 34
25 22 98
25 23 82
25 24 82
26 0 62
26 1 71
26 2 28
26 3 3
26 4 81
26 5 90
26 6 73
26 7 65
26 8 48
26 9 38
26 10 7
26 11 41
26 12 40
26 13 75
26 14 53
26 15 99
26 16 66
26 17 36
26 18 11
26 19 97
26 20 74
26 21 10
26 22 6
26 23 43
26 24 52
26 25 43
27 0 94
27 1 91
27 2 28
27 3 90
27 4 91
27 5 85
27 6 2
27 7 75
27 8 17
27 9 70
27 10 63
27 11 66
27 12 90
27 13 24
27 14 87
27 15 65
27 16 97
27 17 93
27 18 8
27 19 55
27 20 28
27 21 20
27 22 9
27 23 73
27 24 62
27 25 10
27 26 83
28 0 98
28 1 24
28 2 61
28 3 50
28 4 59
28 5 64
28 6 69
28 7 37
28 8 20
28 9 25
28 10 78
28 11 61
28 12 86
28 13 95
28 14 17
28 15 57
28 16 38
28 17 69
28 18 83
28 19 53
28 20 97
28 21 57
28 22 28
28 23 88
28 24 67
28 25 25
28 26 66
28 27 15
29 0 14
29 1 41
29 2 26
29 3 30
29 4 75
29 5 71
29 6 96
29 7 39
29 8 10
29 9 54
29 10 41
29 11 41
29 12 37
29 13 39
29 14 94
29 15 81
29 16 10
29 17 61
29 18 49
29 19 20
29 20 39
29 21 5
29 22 8
29 23 13
29 24 56
29 25 72
29 26 53
29 27 96
29 28 77
30 0 47
30 1 57
30 2 23
30 3 10
30 4 41
30 5 48
30 6 97
30 7 13
30 8 43
30 9 83
30 10 2
30 11 13
30 12 18
30 13 18
30 14 20
30 15 17
30 16 37
30 17 59
30 18 79
30 19 87
30 20 5
30 21 30
30 22 88
30 23 71
30 24 48
30 25 18
30 26 43
30 27 95
30 28 67
30 29 53
31 0 8
31 1 64
31 2 53
31 3 40
31 4 10
31 5 33
31 6 52
31 7 70
31 8 5
31 9 37
31 10 97
31 11 46
31 12 87
31 13 95
31 14 59
31 15 24
31 16 74
31 17 30
31 18 87
31 19 55
31 20 70
31 21 61
31 22 20
31 23 53
31 24 96
31 25 73
31 26 18
31 27 59
31 28 42
31 29 56
31 30 27
32 0 55
32 1 72
32 2 79
32 3 75
32 4 50
32 5 6
32 6 39
32 7 74
32 8 49
32 9 28
32 10 88
32 11 67
32 12 65
32 13 23
32 14 59
32 15 47
32 16 60
32 17 33
32 18 3
32 19 38
32 20 88
32 21 77
32 22 41
32 23 20
32 24 4
32 25 87
32 26 81
32 27 17
32 28 63
32 29 46
32 30 42
32 31 11
33 0 99
33 1 31
33 2 18
33 3 33
33 4 78
33 5 6
33 6 32
33 7 38
33 8 66
33 9 10
33 10 92
33 11 79
33 12 44
33 13 33
33 14 47
33 15 32
33 16 66
33 17 76
33 18 90
33 19 37
33 20 49
33 21 47
33 22 69
33 23 53
33 24 26
33 25 35
33 26 99
33 27 47
33 28 18
33 29 47
33 30 80
33 31 65
33 32 95
34 0 29
34 1 83
34 2 51
34 3 34
34 4 88
34 5 34
34 6 15
34 7 94
34 8 80
34 9 21
34 10 66
34 11 70
34 12 54
34 13 11
34 14 62
34 15 94
34 16 46
34 17 33
34 18 38
34 19 86
34 20 69
34 21 87
34 22 19
34 23 89
34 24 51
34 25 61
34 26 28
34 27 32
34 28 5
34 29 86
34 30 43
34 31 99
34 32 37
34 33 48
